NAME          COPTPROB
OBJSENSE
  MIN
ROWS
 N  __OBJ___
 L  C2      
 L  C8      
 L  C10     
 L  C12     
 L  C14     
 L  C15     
 L  C17     
 L  C21     
 L  C25     
 L  C28     
 L  C29     
 L  C31     
 L  C33     
 L  C36     
 L  C37     
 L  C39     
 L  C47     
 L  C50     
 L  C52     
 L  C54     
 L  C55     
 L  C57     
 L  C58     
 L  C62     
 L  C70     
 L  C72     
 L  C74     
 L  C77     
 L  C79     
 L  C80     
 L  C82     
 L  C84     
 L  C85     
 L  C86     
 L  C87     
 L  C88     
 L  C97     
 L  C99     
 L  C100    
 L  C101    
 L  C102    
 L  C105    
 L  C107    
 L  C108    
 L  C112    
 L  C113    
 L  C115    
 L  C117    
 L  C120    
 L  C122    
 L  C125    
 L  C128    
 L  C140    
 L  C142    
 L  C143    
 L  C145    
 L  C148    
 L  C150    
 L  C158    
 L  C162    
 L  C163    
 L  C165    
 L  C167    
 L  C168    
 L  C169    
 L  C174    
 L  C178    
 L  C180    
 L  C181    
 L  C188    
 L  C191    
 L  C195    
 L  C196    
 L  C197    
 L  C199    
 L  C201    
 L  C202    
 L  C206    
 L  C207    
 L  C208    
 L  C210    
 L  C211    
 L  C214    
 L  C215    
 L  C216    
 L  C217    
 L  C219    
 L  C221    
 L  C226    
 L  C227    
 L  C230    
 L  C236    
 L  C239    
 L  C245    
 L  C246    
 L  C248    
 L  C254    
 L  C255    
 L  C256    
 L  C259    
 L  C265    
 L  C266    
 L  C267    
 L  C268    
 L  C270    
 L  C273    
 L  C277    
 L  C283    
 L  C284    
 L  C288    
 L  C292    
 L  C293    
 L  C295    
 L  C297    
 L  C298    
 L  C304    
 L  C307    
 L  C310    
 L  C317    
 L  C318    
 L  C319    
 L  C320    
 L  C323    
 L  C325    
 L  C327    
 L  C330    
 L  C333    
 L  C334    
 L  C335    
 L  C337    
 L  C338    
 L  C339    
 L  C344    
 L  C345    
 L  C351    
 L  C355    
 L  C357    
 L  C359    
 L  C361    
 L  C367    
 L  C369    
 L  C370    
 L  C374    
 L  C380    
 L  C383    
 L  C384    
 L  C385    
 L  C386    
 L  C388    
 L  C390    
 L  C391    
 L  C392    
 L  C395    
 L  C396    
 L  C398    
COLUMNS
    MARKER    'MARKER'                 'INTORG'
    x1        __OBJ___  264
    x1        C50       -1
    x1        C101      -1
    x1        C145      -1
    x1        C392      -1
    x3        __OBJ___  894
    x3        C142      -1
    x3        C256      -1
    x3        C270      -1
    x3        C297      -1
    x3        C361      -1
    x4        __OBJ___  866
    x4        C55       -1
    x4        C386      -1
    x5        __OBJ___  562
    x5        C31       -1
    x5        C125      -1
    x5        C367      -1
    x9        __OBJ___  262
    x9        C88       -1
    x9        C344      -1
    x16       __OBJ___  761
    x16       C167      -1
    x16       C318      -1
    x16       C359      -1
    x23       __OBJ___  518
    x23       C47       -1
    x23       C70       -1
    x23       C122      -1
    x25       __OBJ___  360
    x25       C85       -1
    x25       C87       -1
    x25       C230      -1
    x28       __OBJ___  651
    x28       C37       -1
    x28       C162      -1
    x28       C217      -1
    x28       C317      -1
    x28       C327      -1
    x28       C396      -1
    x34       __OBJ___  48
    x34       C10       -1
    x34       C82       -1
    x34       C208      -1
    x35       __OBJ___  101
    x35       C14       -1
    x35       C28       -1
    x35       C100      -1
    x36       __OBJ___  445
    x36       C385      -1
    x36       C390      -1
    x37       __OBJ___  226
    x37       C227      -1
    x37       C384      -1
    x38       __OBJ___  46
    x38       C298      -1
    x38       C395      -1
    x43       __OBJ___  309
    x43       C21       -1
    x43       C62       -1
    x43       C112      -1
    x43       C181      -1
    x54       __OBJ___  604
    x54       C57       -1
    x54       C239      -1
    x54       C323      -1
    x54       C370      -1
    x55       __OBJ___  863
    x55       C113      -1
    x55       C140      -1
    x55       C288      -1
    x55       C357      -1
    x55       C391      -1
    x58       __OBJ___  440
    x58       C102      -1
    x58       C188      -1
    x58       C325      -1
    x58       C338      -1
    x58       C374      -1
    x74       __OBJ___  26
    x74       C221      -1
    x74       C320      -1
    x75       __OBJ___  465
    x75       C58       -1
    x75       C283      -1
    x75       C304      -1
    x77       __OBJ___  16
    x77       C168      -1
    x77       C245      -1
    x77       C277      -1
    x77       C293      -1
    x78       __OBJ___  953
    x78       C79       -1
    x78       C211      -1
    x78       C265      -1
    x78       C292      -1
    x79       __OBJ___  189
    x79       C196      -1
    x79       C201      -1
    x79       C310      -1
    x83       __OBJ___  567
    x83       C39       -1
    x83       C120      -1
    x83       C267      -1
    x83       C334      -1
    x83       C339      -1
    x84       __OBJ___  396
    x84       C210      -1
    x84       C273      -1
    x84       C295      -1
    x84       C337      -1
    x85       __OBJ___  793
    x85       C25       -1
    x85       C52       -1
    x85       C207      -1
    x85       C369      -1
    x90       __OBJ___  120
    x90       C86       -1
    x90       C163      -1
    x90       C178      -1
    x90       C214      -1
    x90       C248      -1
    x90       C319      -1
    x95       __OBJ___  622
    x95       C77       -1
    x95       C117      -1
    x95       C236      -1
    x95       C333      -1
    x96       __OBJ___  570
    x96       C2        -1
    x96       C105      -1
    x96       C215      -1
    x97       __OBJ___  906
    x97       C33       -1
    x97       C99       -1
    x97       C202      -1
    x99       __OBJ___  881
    x99       C17       -1
    x99       C29       -1
    x99       C107      -1
    x99       C143      -1
    x99       C150      -1
    x99       C266      -1
    x99       C307      -1
    x101      __OBJ___  170
    x101      C117      -1
    x101      C355      -1
    x110      __OBJ___  234
    x110      C47       -1
    x110      C100      -1
    x110      C201      -1
    x113      __OBJ___  57
    x113      C188      -1
    x113      C219      -1
    x114      __OBJ___  724
    x114      C8        -1
    x114      C36       -1
    x114      C236      -1
    x121      __OBJ___  399
    x121      C101      -1
    x121      C396      -1
    x122      __OBJ___  736
    x122      C100      -1
    x122      C292      -1
    x122      C310      -1
    x122      C395      -1
    x124      __OBJ___  69
    x124      C270      -1
    x124      C351      -1
    x129      __OBJ___  268
    x129      C105      -1
    x129      C125      -1
    x129      C196      -1
    x129      C380      -1
    x133      __OBJ___  385
    x133      C195      -1
    x133      C219      -1
    x135      __OBJ___  480
    x135      C180      -1
    x135      C307      -1
    x141      __OBJ___  140
    x141      C55       -1
    x141      C112      -1
    x141      C115      -1
    x141      C374      -1
    x142      __OBJ___  488
    x142      C47       -1
    x142      C87       -1
    x142      C208      -1
    x142      C215      -1
    x142      C298      -1
    x142      C318      -1
    x143      __OBJ___  696
    x143      C84       -1
    x143      C318      -1
    x143      C333      -1
    x144      __OBJ___  453
    x144      C25       -1
    x144      C54       -1
    x144      C85       -1
    x144      C297      -1
    x147      __OBJ___  62
    x147      C374      -1
    x152      __OBJ___  283
    x152      C100      -1
    x152      C199      -1
    x153      __OBJ___  782
    x153      C33       -1
    x153      C256      -1
    x159      __OBJ___  32
    x159      C145      -1
    x162      __OBJ___  437
    x162      C163      -1
    x162      C191      -1
    x162      C318      -1
    x162      C333      -1
    x163      __OBJ___  176
    x163      C143      -1
    x167      __OBJ___  311
    x167      C163      -1
    x167      C167      -1
    x167      C283      -1
    x167      C307      -1
    x167      C390      -1
    x169      __OBJ___  579
    x169      C36       -1
    x169      C267      -1
    x177      __OBJ___  995
    x177      C165      -1
    x177      C168      -1
    x177      C217      -1
    x177      C230      -1
    x177      C268      -1
    x177      C335      -1
    x177      C370      -1
    x182      __OBJ___  513
    x182      C113      -1
    x182      C255      -1
    x182      C265      -1
    x182      C351      -1
    x183      __OBJ___  659
    x183      C29       -1
    x183      C39       -1
    x183      C216      -1
    x183      C319      -1
    x183      C392      -1
    x184      __OBJ___  164
    x184      C230      -1
    x184      C255      -1
    x184      C367      -1
    x191      __OBJ___  226
    x191      C100      -1
    x191      C143      -1
    x191      C361      -1
    x192      __OBJ___  434
    x192      C25       -1
    x192      C367      -1
    x192      C380      -1
    x200      __OBJ___  285
    x200      C99       -1
    x200      C197      -1
    x200      C230      -1
    x200      C335      -1
    x208      __OBJ___  623
    x208      C158      -1
    x208      C292      -1
    x208      C384      -1
    x209      __OBJ___  569
    x209      C259      -1
    x209      C327      -1
    x209      C337      -1
    x209      C388      -1
    x211      __OBJ___  157
    x211      C97       -1
    x211      C270      -1
    x211      C388      -1
    x212      __OBJ___  395
    x212      C230      -1
    x212      C259      -1
    x212      C334      -1
    x216      __OBJ___  517
    x216      C29       -1
    x216      C334      -1
    x216      C398      -1
    x221      __OBJ___  770
    x221      C17       -1
    x221      C120      -1
    x223      __OBJ___  143
    x223      C107      -1
    x223      C288      -1
    x225      __OBJ___  811
    x225      C102      -1
    x225      C217      -1
    x225      C335      -1
    x225      C359      -1
    x225      C385      -1
    x226      __OBJ___  118
    x226      C142      -1
    x226      C148      -1
    x226      C163      -1
    x228      __OBJ___  740
    x228      C148      -1
    x228      C256      -1
    x228      C355      -1
    x232      __OBJ___  301
    x232      C55       -1
    x232      C122      -1
    x232      C169      -1
    x234      __OBJ___  132
    x234      C158      -1
    x234      C325      -1
    x234      C388      -1
    x236      __OBJ___  196
    x236      C54       -1
    x236      C102      -1
    x236      C226      -1
    x237      __OBJ___  509
    x237      C369      -1
    x237      C383      -1
    x240      __OBJ___  469
    x240      C25       -1
    x240      C201      -1
    x240      C248      -1
    x243      __OBJ___  403
    x243      C188      -1
    x243      C202      -1
    x243      C339      -1
    x245      __OBJ___  629
    x245      C113      -1
    x245      C128      -1
    x245      C227      -1
    x248      __OBJ___  87
    x248      C84       -1
    x248      C320      -1
    x249      __OBJ___  709
    x249      C29       -1
    x249      C31       -1
    x249      C80       -1
    x249      C284      -1
    x252      __OBJ___  628
    x252      C12       -1
    x252      C181      -1
    x252      C327      -1
    x254      __OBJ___  64
    x254      C10       -1
    x254      C80       -1
    x254      C265      -1
    x263      __OBJ___  367
    x263      C72       -1
    x263      C259      -1
    x263      C384      -1
    x266      __OBJ___  221
    x266      C36       -1
    x266      C86       -1
    x266      C107      -1
    x266      C330      -1
    x267      __OBJ___  206
    x267      C211      -1
    x267      C254      -1
    x274      __OBJ___  188
    x274      C77       -1
    x274      C396      -1
    x277      __OBJ___  576
    x277      C101      -1
    x277      C143      -1
    x277      C254      -1
    x278      __OBJ___  763
    x278      C15       -1
    x278      C191      -1
    x278      C330      -1
    x278      C383      -1
    x281      __OBJ___  201
    x281      C84       -1
    x281      C199      -1
    x283      __OBJ___  297
    x283      C50       -1
    x283      C79       -1
    x283      C255      -1
    x283      C268      -1
    x283      C320      -1
    x283      C398      -1
    x287      __OBJ___  397
    x287      C101      -1
    x287      C295      -1
    x288      __OBJ___  588
    x288      C162      -1
    x288      C216      -1
    x288      C266      -1
    x289      __OBJ___  307
    x289      C97       -1
    x289      C115      -1
    x289      C207      -1
    x289      C319      -1
    x289      C391      -1
    x290      __OBJ___  214
    x290      C10       -1
    x290      C216      -1
    x290      C277      -1
    x290      C284      -1
    x293      __OBJ___  512
    x293      C2        -1
    x293      C52       -1
    x293      C82       -1
    x293      C323      -1
    x295      __OBJ___  478
    x295      C79       -1
    x295      C99       -1
    x295      C107      -1
    x295      C398      -1
    x297      __OBJ___  239
    x297      C79       -1
    x297      C117      -1
    x297      C125      -1
    x297      C367      -1
    x298      __OBJ___  275
    x298      C58       -1
    x298      C245      -1
    x298      C380      -1
    x299      __OBJ___  256
    x299      C317      -1
    x299      C388      -1
    x300      __OBJ___  221
    x300      C273      -1
    x300      C357      -1
    x303      __OBJ___  74
    x303      C181      -1
    x303      C210      -1
    x303      C216      -1
    x303      C265      -1
    x303      C398      -1
    x304      __OBJ___  511
    x304      C72       -1
    x304      C79       -1
    x304      C145      -1
    x306      __OBJ___  135
    x306      C211      -1
    x309      __OBJ___  199
    x309      C21       -1
    x309      C254      -1
    x309      C338      -1
    x310      __OBJ___  21
    x310      C206      -1
    x310      C283      -1
    x312      __OBJ___  3
    x312      C74       -1
    x312      C140      -1
    x312      C239      -1
    x314      __OBJ___  125
    x314      C52       -1
    x314      C246      -1
    x315      __OBJ___  137
    x315      C50       -1
    x315      C112      -1
    x315      C355      -1
    x319      __OBJ___  102
    x319      C169      -1
    x319      C283      -1
    x326      __OBJ___  484
    x326      C15       -1
    x326      C28       -1
    x326      C383      -1
    x328      __OBJ___  29
    x328      C162      -1
    x328      C201      -1
    x328      C246      -1
    x330      __OBJ___  188
    x330      C15       -1
    x330      C47       -1
    x330      C293      -1
    x331      __OBJ___  594
    x331      C37       -1
    x331      C191      -1
    x331      C288      -1
    x332      __OBJ___  170
    x332      C180      -1
    x332      C181      -1
    x334      __OBJ___  463
    x334      C8        -1
    x334      C206      -1
    x334      C265      -1
    x334      C345      -1
    x335      __OBJ___  688
    x335      C62       -1
    x335      C333      -1
    x337      __OBJ___  18
    x337      C148      -1
    x337      C196      -1
    x337      C197      -1
    x337      C246      -1
    x347      __OBJ___  299
    x347      C167      -1
    x347      C174      -1
    x347      C196      -1
    x347      C369      -1
    x347      C396      -1
    x348      __OBJ___  300
    x348      C57       -1
    x348      C174      -1
    x348      C270      -1
    x352      __OBJ___  43
    x352      C12       -1
    x352      C201      -1
    x353      __OBJ___  136
    x353      C70       -1
    x353      C128      -1
    x353      C293      -1
    x353      C338      -1
    x357      __OBJ___  450
    x357      C36       -1
    x357      C215      -1
    x357      C221      -1
    x362      __OBJ___  281
    x362      C74       -1
    x362      C88       -1
    x362      C108      -1
    x362      C320      -1
    x362      C345      -1
    x363      __OBJ___  343
    x363      C74       -1
    x363      C77       -1
    x363      C178      -1
    x363      C398      -1
    x365      __OBJ___  697
    x365      C2        -1
    x365      C162      -1
    x365      C344      -1
    x368      __OBJ___  326
    x368      C165      -1
    x368      C208      -1
    x368      C236      -1
    x368      C304      -1
    x370      __OBJ___  296
    x370      C31       -1
    x370      C142      -1
    x371      __OBJ___  140
    x371      C345      -1
    x372      __OBJ___  298
    x372      C37       -1
    x372      C191      -1
    x375      __OBJ___  409
    x375      C150      -1
    x375      C214      -1
    x375      C215      -1
    x376      __OBJ___  33
    x376      C226      -1
    x376      C323      -1
    x377      __OBJ___  158
    x377      C100      -1
    x377      C108      -1
    x377      C295      -1
    x378      __OBJ___  734
    x378      C17       -1
    x382      __OBJ___  467
    x382      C58       -1
    x382      C215      -1
    x382      C293      -1
    x383      __OBJ___  484
    x383      C29       -1
    x383      C54       -1
    x383      C199      -1
    x386      __OBJ___  777
    x386      C140      -1
    x386      C199      -1
    x386      C338      -1
    x386      C386      -1
    x392      __OBJ___  64
    x392      C335      -1
    x393      __OBJ___  556
    x393      C195      -1
    x393      C307      -1
    x394      __OBJ___  519
    x394      C14       -1
    x394      C25       -1
    x394      C210      -1
    x395      __OBJ___  299
    x395      C72       -1
    x395      C317      -1
    MARKER    'MARKER'                 'INTEND'
RHS
    RHS       __OBJ___  -21682
    RHS       C2        -1
    RHS       C8        -1
    RHS       C10       -1
    RHS       C12       -1
    RHS       C14       -1
    RHS       C15       -1
    RHS       C17       -1
    RHS       C21       -1
    RHS       C25       -1
    RHS       C28       -1
    RHS       C29       -1
    RHS       C31       -1
    RHS       C33       -1
    RHS       C36       -1
    RHS       C37       -1
    RHS       C39       -1
    RHS       C47       -1
    RHS       C50       -1
    RHS       C52       -1
    RHS       C54       -1
    RHS       C55       -1
    RHS       C57       -1
    RHS       C58       -1
    RHS       C62       -1
    RHS       C70       -1
    RHS       C72       -1
    RHS       C74       -1
    RHS       C77       -1
    RHS       C79       -1
    RHS       C80       -1
    RHS       C82       -1
    RHS       C84       -1
    RHS       C85       -1
    RHS       C86       -1
    RHS       C87       -1
    RHS       C88       -1
    RHS       C97       -1
    RHS       C99       -1
    RHS       C100      -1
    RHS       C101      -1
    RHS       C102      -1
    RHS       C105      -1
    RHS       C107      -1
    RHS       C108      -1
    RHS       C112      -1
    RHS       C113      -1
    RHS       C115      -1
    RHS       C117      -1
    RHS       C120      -1
    RHS       C122      -1
    RHS       C125      -1
    RHS       C128      -1
    RHS       C140      -1
    RHS       C142      -1
    RHS       C143      -1
    RHS       C145      -1
    RHS       C148      -1
    RHS       C150      -1
    RHS       C158      -1
    RHS       C162      -1
    RHS       C163      -1
    RHS       C165      -1
    RHS       C167      -1
    RHS       C168      -1
    RHS       C169      -1
    RHS       C174      -1
    RHS       C178      -1
    RHS       C180      -1
    RHS       C181      -1
    RHS       C188      -1
    RHS       C191      -1
    RHS       C195      -1
    RHS       C196      -1
    RHS       C197      -1
    RHS       C199      -1
    RHS       C201      -1
    RHS       C202      -1
    RHS       C206      -1
    RHS       C207      -1
    RHS       C208      -1
    RHS       C210      -1
    RHS       C211      -1
    RHS       C214      -1
    RHS       C215      -1
    RHS       C216      -1
    RHS       C217      -1
    RHS       C219      -1
    RHS       C221      -1
    RHS       C226      -1
    RHS       C227      -1
    RHS       C230      -1
    RHS       C236      -1
    RHS       C239      -1
    RHS       C245      -1
    RHS       C246      -1
    RHS       C248      -1
    RHS       C254      -1
    RHS       C255      -1
    RHS       C256      -1
    RHS       C259      -1
    RHS       C265      -1
    RHS       C266      -1
    RHS       C267      -1
    RHS       C268      -1
    RHS       C270      -1
    RHS       C273      -1
    RHS       C277      -1
    RHS       C283      -1
    RHS       C284      -1
    RHS       C288      -1
    RHS       C292      -1
    RHS       C293      -1
    RHS       C295      -1
    RHS       C297      -1
    RHS       C298      -1
    RHS       C304      -1
    RHS       C307      -1
    RHS       C310      -1
    RHS       C317      -1
    RHS       C318      -1
    RHS       C319      -1
    RHS       C320      -1
    RHS       C323      -1
    RHS       C325      -1
    RHS       C327      -1
    RHS       C330      -1
    RHS       C333      -1
    RHS       C334      -1
    RHS       C335      -1
    RHS       C337      -1
    RHS       C338      -1
    RHS       C339      -1
    RHS       C344      -1
    RHS       C345      -1
    RHS       C351      -1
    RHS       C355      -1
    RHS       C357      -1
    RHS       C359      -1
    RHS       C361      -1
    RHS       C367      -1
    RHS       C369      -1
    RHS       C370      -1
    RHS       C374      -1
    RHS       C380      -1
    RHS       C383      -1
    RHS       C384      -1
    RHS       C385      -1
    RHS       C386      -1
    RHS       C388      -1
    RHS       C390      -1
    RHS       C391      -1
    RHS       C392      -1
    RHS       C395      -1
    RHS       C396      -1
    RHS       C398      -1
BOUNDS
 UP BOUND     x1        1
 UP BOUND     x3        1
 UP BOUND     x4        1
 UP BOUND     x5        1
 UP BOUND     x9        1
 UP BOUND     x16       1
 UP BOUND     x23       1
 UP BOUND     x25       1
 UP BOUND     x28       1
 UP BOUND     x34       1
 UP BOUND     x35       1
 UP BOUND     x36       1
 UP BOUND     x37       1
 UP BOUND     x38       1
 UP BOUND     x43       1
 UP BOUND     x54       1
 UP BOUND     x55       1
 UP BOUND     x58       1
 UP BOUND     x74       1
 UP BOUND     x75       1
 UP BOUND     x77       1
 UP BOUND     x78       1
 UP BOUND     x79       1
 UP BOUND     x83       1
 UP BOUND     x84       1
 UP BOUND     x85       1
 UP BOUND     x90       1
 UP BOUND     x95       1
 UP BOUND     x96       1
 UP BOUND     x97       1
 UP BOUND     x99       1
 UP BOUND     x101      1
 UP BOUND     x110      1
 UP BOUND     x113      1
 UP BOUND     x114      1
 UP BOUND     x121      1
 UP BOUND     x122      1
 UP BOUND     x124      1
 UP BOUND     x129      1
 UP BOUND     x133      1
 UP BOUND     x135      1
 UP BOUND     x141      1
 UP BOUND     x142      1
 UP BOUND     x143      1
 UP BOUND     x144      1
 UP BOUND     x147      1
 UP BOUND     x152      1
 UP BOUND     x153      1
 UP BOUND     x159      1
 UP BOUND     x162      1
 UP BOUND     x163      1
 UP BOUND     x167      1
 UP BOUND     x169      1
 UP BOUND     x177      1
 UP BOUND     x182      1
 UP BOUND     x183      1
 UP BOUND     x184      1
 UP BOUND     x191      1
 UP BOUND     x192      1
 UP BOUND     x200      1
 UP BOUND     x208      1
 UP BOUND     x209      1
 UP BOUND     x211      1
 UP BOUND     x212      1
 UP BOUND     x216      1
 UP BOUND     x221      1
 UP BOUND     x223      1
 UP BOUND     x225      1
 UP BOUND     x226      1
 UP BOUND     x228      1
 UP BOUND     x232      1
 UP BOUND     x234      1
 UP BOUND     x236      1
 UP BOUND     x237      1
 UP BOUND     x240      1
 UP BOUND     x243      1
 UP BOUND     x245      1
 UP BOUND     x248      1
 UP BOUND     x249      1
 UP BOUND     x252      1
 UP BOUND     x254      1
 UP BOUND     x263      1
 UP BOUND     x266      1
 UP BOUND     x267      1
 UP BOUND     x274      1
 UP BOUND     x277      1
 UP BOUND     x278      1
 UP BOUND     x281      1
 UP BOUND     x283      1
 UP BOUND     x287      1
 UP BOUND     x288      1
 UP BOUND     x289      1
 UP BOUND     x290      1
 UP BOUND     x293      1
 UP BOUND     x295      1
 UP BOUND     x297      1
 UP BOUND     x298      1
 UP BOUND     x299      1
 UP BOUND     x300      1
 UP BOUND     x303      1
 UP BOUND     x304      1
 UP BOUND     x306      1
 UP BOUND     x309      1
 UP BOUND     x310      1
 UP BOUND     x312      1
 UP BOUND     x314      1
 UP BOUND     x315      1
 UP BOUND     x319      1
 UP BOUND     x326      1
 UP BOUND     x328      1
 UP BOUND     x330      1
 UP BOUND     x331      1
 UP BOUND     x332      1
 UP BOUND     x334      1
 UP BOUND     x335      1
 UP BOUND     x337      1
 UP BOUND     x347      1
 UP BOUND     x348      1
 UP BOUND     x352      1
 UP BOUND     x353      1
 UP BOUND     x357      1
 UP BOUND     x362      1
 UP BOUND     x363      1
 UP BOUND     x365      1
 UP BOUND     x368      1
 UP BOUND     x370      1
 UP BOUND     x371      1
 UP BOUND     x372      1
 UP BOUND     x375      1
 UP BOUND     x376      1
 UP BOUND     x377      1
 UP BOUND     x378      1
 UP BOUND     x382      1
 UP BOUND     x383      1
 UP BOUND     x386      1
 UP BOUND     x392      1
 UP BOUND     x393      1
 UP BOUND     x394      1
 UP BOUND     x395      1
ENDATA
